HUN,8,6,81
1,28,4,21,2,25,3,22,5,22,0,27
3,21,5,30,2,29,0,22,1,27,4,26
3,29,2,22,0,25,1,22,5,23,4,27
1,30,4,27,0,30,3,27,5,22,2,21
1,21,3,29,0,25,5,25,4,22,2,22
2,23,1,24,4,24,3,25,5,30,0,28
4,27,3,24,1,22,2,28,5,28,0,21
3,25,4,29,1,22,2,22,0,25,5,28
